1 1 -2 0
1 -1 -3 0
1 -4 -3 0
1 -5 -6 0
1 -5 7 0
1 -5 3 0
1 8 6 0
1 -9 -1 0
1 -3 10 0
1 -3 -11 0
1 3 12 0
1 -13 11 0
1 -14 -10 0
1 14 -15 0
1 14 16 0
1 14 -5 0
1 14 17 0
1 -18 -9 0
1 -19 -20 0
1 12 -21 0
1 -12 22 0
1 -12 23 0
1 -12 -24 0
1 -12 25 0
1 -26 -27 0
1 26 -28 0
1 -26 -23 0
1 -26 25 0
1 -26 -3 0
1 20 -26 0
1 -20 29 0
1 -22 30 0
1 -22 12 0
1 -22 18 0
1 6 21 0
1 -6 10 0
1 6 -31 0
1 21 12 0
1 -21 -18 0
1 -32 11 0
1 33 -27 0
1 33 -34 0
1 -35 34 0
1 -35 -25 0
1 -30 22 0
1 -30 27 0
1 -30 -23 0
1 -30 35 0
1 -30 34 0
1 -25 -30 0
1 25 -36 0
1 -23 33 0
1 -23 -37 0
1 -34 -38 0
1 27 -26 0
1 -27 39 0
1 27 34 0
1 -2 -40 0
1 -2 -1 0
1 -41 40 0
1 7 42 0
1 43 -44 0
1 43 45 0
1 43 -46 0
1 43 7 0
1 -45 43 0
1 45 16 0
1 -47 45 0
1 47 28 0
1 47 -43 0
1 -47 16 0
1 -44 -48 0
1 44 43 0
1 -44 2 0
1 -40 -41 0
1 40 -49 0
1 40 7 0
1 -16 15 0
1 -15 -47 0
1 15 -42 0
1 -15 50 0
1 -24 -51 0
1 -24 -52 0
1 28 -53 0
1 46 -54 0
1 -46 50 0
1 -46 55 0
1 46 -28 0
1 -46 56 0
1 -50 -28 0
1 -50 -15 0
1 -50 -11 0
1 -53 15 0
1 11 -10 0
1 11 46 0
1 -11 -51 0
1 -11 32 0
1 10 21 0
1 10 52 0
1 -10 -50 0
1 10 -3 0
1 57 -58 0
1 -55 58 0
1 55 -17 0
1 52 59 0
1 52 -11 0
1 -52 -60 0
1 -52 61 0
1 52 31 0
1 -60 62 0
1 -60 57 0
1 60 -61 0
1 51 -28 0
1 -51 63 0
1 51 64 0
1 -65 54 0
1 65 -10 0
1 -65 28 0
1 -65 -51 0
1 -65 -24 0
1 59 -58 0
1 -59 66 0
1 59 -56 0
1 -31 -20 0
1 67 68 0
1 -67 60 0
1 61 -69 0
1 -61 66 0
1 -61 -29 0
1 -61 34 0
1 61 -17 0
1 -70 -71 0
1 -70 59 0
1 -70 72 0
1 70 -73 0
1 -70 31 0
1 58 -74 0
1 -66 75 0
1 -17 -76 0
1 -17 -77 0
1 -17 66 0
1 -17 59 0
1 -17 -14 0
1 -17 75 0
1 74 58 0
1 74 -27 0
1 -74 70 0
1 -74 34 0
1 -38 58 0
1 -38 74 0
1 -38 -78 0
1 -71 -78 0
1 71 -36 0
1 73 58 0
1 -73 -78 0
1 73 36 0
1 -29 79 0
1 29 -80 0
1 29 38 0
1 -69 22 0
1 78 -81 0
1 78 38 0
1 -68 -67 0
1 68 -73 0
1 82 36 0
1 83 -79 0
1 83 29 0
1 -83 -36 0
1 79 39 0
1 -79 -81 0
1 -79 -36 0
1 36 -80 0
1 -36 -73 0
1 37 83 0
1 -37 79 0
1 84 -79 0
1 84 -34 0
1 -39 -27 0
1 39 -83 0
1 -39 71 0
1 -56 53 0
1 -56 -46 0
1 56 59 0
1 56 -50 0
1 -56 -65 0
1 54 -46 0
1 -63 85 0
1 -86 87 0
1 87 77 0
1 48 63 0
1 -48 49 0
1 -77 -88 0
1 -77 -89 0
1 89 -66 0
1 90 -87 0
1 -90 -91 0
1 -90 17 0
1 75 -92 0
1 75 90 0
1 75 -88 0
1 -92 -77 0
1 -91 90 0
1 -91 -72 0
1 -85 -63 0
1 88 -89 0
1 -76 91 0
1 76 -78 0
1 76 93 0
1 -76 -62 0
1 72 -58 0
1 -72 -93 0
1 72 -62 0
1 -94 95 0
1 94 -62 0
1 95 -90 0
1 62 -94 0
1 62 76 0
1 62 81 0
1 -62 75 0
1 62 60 0
1 96 76 0
1 96 -90 0
